






































































































50 65 6 39 55 53 
70 62 30 0 8 41 
46 54 34 75 59 25 
26 74 72 64 43 16 33 
37 56 67 9 18 66 29 
52 4 63 13 22 24 69 
71 73 44 14 15 61 68 
76 35 60 19 5 47 
3 51 1 38 23 2 21 
7 20 32 45 10 42 
49 28 48 11 12 31 
40 57 17 58 36 27 
